p cnf 622 1839
c inputs: 1 2 3 4 5 6 7 8 9
c variables for gates: 10 ... 613
c outputs: 614 615 616 617 618 619 620 621 622
c random input: -1 2 3 -4 5 6 7 -8 9
10 -3 -7 0
-10 3 0
-10 7 0
11 -3 -8 0
-11 3 0
-11 8 0
12 -3 -9 0
-12 3 0
-12 9 0
13 -4 -7 0
-13 4 0
-13 7 0
14 -4 -8 0
-14 4 0
-14 8 0
15 -4 -9 0
-15 4 0
-15 9 0
16 -13 -11 0
-16 13 0
-16 11 0
17 -11 13 0
-17 11 0
-17 -13 0
18 -13 11 0
-18 13 0
-18 -11 0
19 17 18 0
-19 -17 0
-19 -18 0
20 -14 -12 0
-20 14 0
-20 12 0
21 -12 14 0
-21 12 0
-21 -14 0
22 -14 12 0
-22 14 0
-22 -12 0
23 21 22 0
-23 -21 0
-23 -22 0
24 16 23 0
-24 -16 0
-24 -23 0
25 -16 -23 0
-25 16 0
-25 23 0
26 24 25 0
-26 -24 0
-26 -25 0
27 -16 23 0
-27 16 0
-27 -23 0
28 -15 20 0
-28 15 0
-28 -20 0
29 15 -20 0
-29 -15 0
-29 20 0
30 29 28 0
-30 -29 0
-30 -28 0
31 -27 -30 0
-31 27 0
-31 30 0
32 27 30 0
-32 -27 0
-32 -30 0
33 32 31 0
-33 -32 0
-33 -31 0
34 -15 -27 0
-34 15 0
-34 27 0
35 -20 -27 0
-35 20 0
-35 27 0
36 -15 -20 0
-36 15 0
-36 20 0
37 36 35 0
-37 -36 0
-37 -35 0
38 34 -37 0
-38 -34 0
-38 37 0
39 -1 -5 0
-39 1 0
-39 5 0
40 -1 -6 0
-40 1 0
-40 6 0
41 -2 -5 0
-41 2 0
-41 5 0
42 -2 -6 0
-42 2 0
-42 6 0
43 -40 41 0
-43 40 0
-43 -41 0
44 -41 40 0
-44 41 0
-44 -40 0
45 43 44 0
-45 -43 0
-45 -44 0
46 -41 -40 0
-46 41 0
-46 40 0
47 42 -46 0
-47 -42 0
-47 46 0
48 -42 46 0
-48 42 0
-48 -46 0
49 47 48 0
-49 -47 0
-49 -48 0
50 -42 -46 0
-50 42 0
-50 46 0
51 -7 5 0
-51 7 0
-51 -5 0
52 -5 7 0
-52 5 0
-52 -7 0
53 52 51 0
-53 -52 0
-53 -51 0
54 -8 6 0
-54 8 0
-54 -6 0
55 -6 8 0
-55 6 0
-55 -8 0
56 54 55 0
-56 -54 0
-56 -55 0
57 -5 -7 0
-57 5 0
-57 7 0
58 57 56 0
-58 -57 0
-58 -56 0
59 -57 -56 0
-59 57 0
-59 56 0
60 58 59 0
-60 -58 0
-60 -59 0
61 -6 -8 0
-61 6 0
-61 8 0
62 -5 -7 0
-62 5 0
-62 7 0
63 -8 -62 0
-63 8 0
-63 62 0
64 -5 -7 0
-64 5 0
-64 7 0
65 -6 -64 0
-65 6 0
-65 64 0
66 65 63 0
-66 -65 0
-66 -63 0
67 61 -66 0
-67 -61 0
-67 66 0
68 -9 -67 0
-68 9 0
-68 67 0
69 9 67 0
-69 -9 0
-69 -67 0
70 68 69 0
-70 -68 0
-70 -69 0
71 -9 67 0
-71 9 0
-71 -67 0
72 -3 1 0
-72 3 0
-72 -1 0
73 -1 3 0
-73 1 0
-73 -3 0
74 73 72 0
-74 -73 0
-74 -72 0
75 -4 2 0
-75 4 0
-75 -2 0
76 -2 4 0
-76 2 0
-76 -4 0
77 76 75 0
-77 -76 0
-77 -75 0
78 -1 -3 0
-78 1 0
-78 3 0
79 78 77 0
-79 -78 0
-79 -77 0
80 -78 -77 0
-80 78 0
-80 77 0
81 79 80 0
-81 -79 0
-81 -80 0
82 -2 -4 0
-82 2 0
-82 4 0
83 -1 -3 0
-83 1 0
-83 3 0
84 -4 -83 0
-84 4 0
-84 83 0
85 -1 -3 0
-85 1 0
-85 3 0
86 -2 -85 0
-86 2 0
-86 85 0
87 86 84 0
-87 -86 0
-87 -84 0
88 82 -87 0
-88 -82 0
-88 87 0
89 88 70 0
-89 -88 0
-89 -70 0
90 88 -71 0
-90 -88 0
-90 71 0
91 53 74 0
-91 -53 0
-91 -74 0
92 74 60 0
-92 -74 0
-92 -60 0
93 53 81 0
-93 -53 0
-93 -81 0
94 81 60 0
-94 -81 0
-94 -60 0
95 93 -92 0
-95 -93 0
-95 92 0
96 -93 92 0
-96 93 0
-96 -92 0
97 96 95 0
-97 -96 0
-97 -95 0
98 -93 -92 0
-98 93 0
-98 92 0
99 94 -98 0
-99 -94 0
-99 98 0
100 -94 98 0
-100 94 0
-100 -98 0
101 100 99 0
-101 -100 0
-101 -99 0
102 -94 -98 0
-102 94 0
-102 98 0
103 -53 70 0
-103 53 0
-103 -70 0
104 53 -70 0
-104 -53 0
-104 70 0
105 103 104 0
-105 -103 0
-105 -104 0
106 -71 -60 0
-106 71 0
-106 60 0
107 71 60 0
-107 -71 0
-107 -60 0
108 107 106 0
-108 -107 0
-108 -106 0
109 53 70 0
-109 -53 0
-109 -70 0
110 109 108 0
-110 -109 0
-110 -108 0
111 -109 -108 0
-111 109 0
-111 108 0
112 110 111 0
-112 -110 0
-112 -111 0
113 -71 60 0
-113 71 0
-113 -60 0
114 53 70 0
-114 -53 0
-114 -70 0
115 -71 -114 0
-115 71 0
-115 114 0
116 53 70 0
-116 -53 0
-116 -70 0
117 60 -116 0
-117 -60 0
-117 116 0
118 115 117 0
-118 -115 0
-118 -117 0
119 113 -118 0
-119 -113 0
-119 118 0
120 -74 88 0
-120 74 0
-120 -88 0
121 74 -88 0
-121 -74 0
-121 88 0
122 121 120 0
-122 -121 0
-122 -120 0
123 74 88 0
-123 -74 0
-123 -88 0
124 123 81 0
-124 -123 0
-124 -81 0
125 -123 -81 0
-125 123 0
-125 81 0
126 125 124 0
-126 -125 0
-126 -124 0
127 74 88 0
-127 -74 0
-127 -88 0
128 -127 81 0
-128 127 0
-128 -81 0
129 122 105 0
-129 -122 0
-129 -105 0
130 122 112 0
-130 -122 0
-130 -112 0
131 122 119 0
-131 -122 0
-131 -119 0
132 126 105 0
-132 -126 0
-132 -105 0
133 126 112 0
-133 -126 0
-133 -112 0
134 126 119 0
-134 -126 0
-134 -119 0
135 -128 105 0
-135 128 0
-135 -105 0
136 -128 112 0
-136 128 0
-136 -112 0
137 -128 119 0
-137 128 0
-137 -119 0
138 -130 -132 0
-138 130 0
-138 132 0
139 -130 132 0
-139 130 0
-139 -132 0
140 130 -132 0
-140 -130 0
-140 132 0
141 140 139 0
-141 -140 0
-141 -139 0
142 -131 -133 0
-142 131 0
-142 133 0
143 -131 -135 0
-143 131 0
-143 135 0
144 -133 -135 0
-144 133 0
-144 135 0
145 144 143 0
-145 -144 0
-145 -143 0
146 -145 142 0
-146 145 0
-146 -142 0
147 -133 135 0
-147 133 0
-147 -135 0
148 133 -135 0
-148 -133 0
-148 135 0
149 148 147 0
-149 -148 0
-149 -147 0
150 -131 -149 0
-150 131 0
-150 149 0
151 131 149 0
-151 -131 0
-151 -149 0
152 151 150 0
-152 -151 0
-152 -150 0
153 -136 -134 0
-153 136 0
-153 134 0
154 136 -134 0
-154 -136 0
-154 134 0
155 -136 134 0
-155 136 0
-155 -134 0
156 154 155 0
-156 -154 0
-156 -155 0
157 138 152 0
-157 -138 0
-157 -152 0
158 -138 -152 0
-158 138 0
-158 152 0
159 157 158 0
-159 -157 0
-159 -158 0
160 -138 152 0
-160 138 0
-160 -152 0
161 156 -146 0
-161 -156 0
-161 146 0
162 -156 146 0
-162 156 0
-162 -146 0
163 161 162 0
-163 -161 0
-163 -162 0
164 -160 -163 0
-164 160 0
-164 163 0
165 160 163 0
-165 -160 0
-165 -163 0
166 165 164 0
-166 -165 0
-166 -164 0
167 156 -160 0
-167 -156 0
-167 160 0
168 -160 146 0
-168 160 0
-168 -146 0
169 156 146 0
-169 -156 0
-169 -146 0
170 168 169 0
-170 -168 0
-170 -169 0
171 167 -170 0
-171 -167 0
-171 170 0
172 -137 153 0
-172 137 0
-172 -153 0
173 137 -153 0
-173 -137 0
-173 153 0
174 172 173 0
-174 -172 0
-174 -173 0
175 -174 171 0
-175 174 0
-175 -171 0
176 174 -171 0
-176 -174 0
-176 171 0
177 175 176 0
-177 -175 0
-177 -176 0
178 -137 171 0
-178 137 0
-178 -171 0
179 -153 171 0
-179 153 0
-179 -171 0
180 -137 -153 0
-180 137 0
-180 153 0
181 179 180 0
-181 -179 0
-181 -180 0
182 178 -181 0
-182 -178 0
-182 181 0
183 90 -89 0
-183 -90 0
-183 89 0
184 -90 89 0
-184 90 0
-184 -89 0
185 183 184 0
-185 -183 0
-185 -184 0
186 90 89 0
-186 -90 0
-186 -89 0
187 89 -129 0
-187 -89 0
-187 129 0
188 -89 129 0
-188 89 0
-188 -129 0
189 188 187 0
-189 -188 0
-189 -187 0
190 141 -185 0
-190 -141 0
-190 185 0
191 -141 185 0
-191 141 0
-191 -185 0
192 190 191 0
-192 -190 0
-192 -191 0
193 -89 -129 0
-193 89 0
-193 129 0
194 193 192 0
-194 -193 0
-194 -192 0
195 -193 -192 0
-195 193 0
-195 192 0
196 195 194 0
-196 -195 0
-196 -194 0
197 141 185 0
-197 -141 0
-197 -185 0
198 -89 -129 0
-198 89 0
-198 129 0
199 141 -198 0
-199 -141 0
-199 198 0
200 -89 -129 0
-200 89 0
-200 129 0
201 -200 185 0
-201 200 0
-201 -185 0
202 199 201 0
-202 -199 0
-202 -201 0
203 -202 197 0
-203 202 0
-203 -197 0
204 -186 159 0
-204 186 0
-204 -159 0
205 186 -159 0
-205 -186 0
-205 159 0
206 205 204 0
-206 -205 0
-206 -204 0
207 -203 206 0
-207 203 0
-207 -206 0
208 203 -206 0
-208 -203 0
-208 206 0
209 207 208 0
-209 -207 0
-209 -208 0
210 186 159 0
-210 -186 0
-210 -159 0
211 203 159 0
-211 -203 0
-211 -159 0
212 203 186 0
-212 -203 0
-212 -186 0
213 212 211 0
-213 -212 0
-213 -211 0
214 -213 210 0
-214 213 0
-214 -210 0
215 -186 166 0
-215 186 0
-215 -166 0
216 186 -166 0
-216 -186 0
-216 166 0
217 216 215 0
-217 -216 0
-217 -215 0
218 -214 217 0
-218 214 0
-218 -217 0
219 214 -217 0
-219 -214 0
-219 217 0
220 218 219 0
-220 -218 0
-220 -219 0
221 186 166 0
-221 -186 0
-221 -166 0
222 214 166 0
-222 -214 0
-222 -166 0
223 214 186 0
-223 -214 0
-223 -186 0
224 222 223 0
-224 -222 0
-224 -223 0
225 -224 221 0
-225 224 0
-225 -221 0
226 177 -186 0
-226 -177 0
-226 186 0
227 -177 186 0
-227 177 0
-227 -186 0
228 226 227 0
-228 -226 0
-228 -227 0
229 -225 228 0
-229 225 0
-229 -228 0
230 225 -228 0
-230 -225 0
-230 228 0
231 230 229 0
-231 -230 0
-231 -229 0
232 177 186 0
-232 -177 0
-232 -186 0
233 177 225 0
-233 -177 0
-233 -225 0
234 225 186 0
-234 -225 0
-234 -186 0
235 233 234 0
-235 -233 0
-235 -234 0
236 232 -235 0
-236 -232 0
-236 235 0
237 -186 182 0
-237 186 0
-237 -182 0
238 186 -182 0
-238 -186 0
-238 182 0
239 238 237 0
-239 -238 0
-239 -237 0
240 239 -236 0
-240 -239 0
-240 236 0
241 -239 236 0
-241 239 0
-241 -236 0
242 240 241 0
-242 -240 0
-242 -241 0
243 -91 -97 0
-243 91 0
-243 97 0
244 91 97 0
-244 -91 0
-244 -97 0
245 243 244 0
-245 -243 0
-245 -244 0
246 91 -97 0
-246 -91 0
-246 97 0
247 -101 246 0
-247 101 0
-247 -246 0
248 101 -246 0
-248 -101 0
-248 246 0
249 248 247 0
-249 -248 0
-249 -247 0
250 -101 -246 0
-250 101 0
-250 246 0
251 250 102 0
-251 -250 0
-251 -102 0
252 -250 -102 0
-252 250 0
-252 102 0
253 251 252 0
-253 -251 0
-253 -252 0
254 -250 102 0
-254 250 0
-254 -102 0
255 91 189 0
-255 -91 0
-255 -189 0
256 -91 -189 0
-256 91 0
-256 189 0
257 256 255 0
-257 -256 0
-257 -255 0
258 196 -245 0
-258 -196 0
-258 245 0
259 -196 245 0
-259 196 0
-259 -245 0
260 259 258 0
-260 -259 0
-260 -258 0
261 -91 189 0
-261 91 0
-261 -189 0
262 260 261 0
-262 -260 0
-262 -261 0
263 -260 -261 0
-263 260 0
-263 261 0
264 263 262 0
-264 -263 0
-264 -262 0
265 196 245 0
-265 -196 0
-265 -245 0
266 -91 189 0
-266 91 0
-266 -189 0
267 196 -266 0
-267 -196 0
-267 266 0
268 -91 189 0
-268 91 0
-268 -189 0
269 245 -268 0
-269 -245 0
-269 268 0
270 269 267 0
-270 -269 0
-270 -267 0
271 265 -270 0
-271 -265 0
-271 270 0
272 -249 209 0
-272 249 0
-272 -209 0
273 249 -209 0
-273 -249 0
-273 209 0
274 273 272 0
-274 -273 0
-274 -272 0
275 274 -271 0
-275 -274 0
-275 271 0
276 -274 271 0
-276 274 0
-276 -271 0
277 275 276 0
-277 -275 0
-277 -276 0
278 249 209 0
-278 -249 0
-278 -209 0
279 271 209 0
-279 -271 0
-279 -209 0
280 249 271 0
-280 -249 0
-280 -271 0
281 280 279 0
-281 -280 0
-281 -279 0
282 -281 278 0
-282 281 0
-282 -278 0
283 220 -253 0
-283 -220 0
-283 253 0
284 -220 253 0
-284 220 0
-284 -253 0
285 283 284 0
-285 -283 0
-285 -284 0
286 -282 285 0
-286 282 0
-286 -285 0
287 282 -285 0
-287 -282 0
-287 285 0
288 287 286 0
-288 -287 0
-288 -286 0
289 220 253 0
-289 -220 0
-289 -253 0
290 220 282 0
-290 -220 0
-290 -282 0
291 253 282 0
-291 -253 0
-291 -282 0
292 290 291 0
-292 -290 0
-292 -291 0
293 289 -292 0
-293 -289 0
-293 292 0
294 -254 231 0
-294 254 0
-294 -231 0
295 254 -231 0
-295 -254 0
-295 231 0
296 294 295 0
-296 -294 0
-296 -295 0
297 -293 296 0
-297 293 0
-297 -296 0
298 293 -296 0
-298 -293 0
-298 296 0
299 297 298 0
-299 -297 0
-299 -298 0
300 254 231 0
-300 -254 0
-300 -231 0
301 293 231 0
-301 -293 0
-301 -231 0
302 293 254 0
-302 -293 0
-302 -254 0
303 302 301 0
-303 -302 0
-303 -301 0
304 300 -303 0
-304 -300 0
-304 303 0
305 -254 242 0
-305 254 0
-305 -242 0
306 254 -242 0
-306 -254 0
-306 242 0
307 306 305 0
-307 -306 0
-307 -305 0
308 307 -304 0
-308 -307 0
-308 304 0
309 -307 304 0
-309 307 0
-309 -304 0
310 309 308 0
-310 -309 0
-310 -308 0
311 -257 101 0
-311 257 0
-311 -101 0
312 257 -101 0
-312 -257 0
-312 101 0
313 312 311 0
-313 -312 0
-313 -311 0
314 257 101 0
-314 -257 0
-314 -101 0
315 -264 -102 0
-315 264 0
-315 102 0
316 264 102 0
-316 -264 0
-316 -102 0
317 315 316 0
-317 -315 0
-317 -316 0
318 314 317 0
-318 -314 0
-318 -317 0
319 -314 -317 0
-319 314 0
-319 317 0
320 318 319 0
-320 -318 0
-320 -319 0
321 264 -102 0
-321 -264 0
-321 102 0
322 -314 -102 0
-322 314 0
-322 102 0
323 264 -314 0
-323 -264 0
-323 314 0
324 322 323 0
-324 -322 0
-324 -323 0
325 321 -324 0
-325 -321 0
-325 324 0
326 -89 -325 0
-326 89 0
-326 325 0
327 89 325 0
-327 -89 0
-327 -325 0
328 326 327 0
-328 -326 0
-328 -327 0
329 -328 277 0
-329 328 0
-329 -277 0
330 328 -277 0
-330 -328 0
-330 277 0
331 329 330 0
-331 -329 0
-331 -330 0
332 -89 277 0
-332 89 0
-332 -277 0
333 325 277 0
-333 -325 0
-333 -277 0
334 -89 325 0
-334 89 0
-334 -325 0
335 333 334 0
-335 -333 0
-335 -334 0
336 -335 332 0
-336 335 0
-336 -332 0
337 -90 -336 0
-337 90 0
-337 336 0
338 90 336 0
-338 -90 0
-338 -336 0
339 337 338 0
-339 -337 0
-339 -338 0
340 -339 288 0
-340 339 0
-340 -288 0
341 339 -288 0
-341 -339 0
-341 288 0
342 341 340 0
-342 -341 0
-342 -340 0
343 -90 288 0
-343 90 0
-343 -288 0
344 336 288 0
-344 -336 0
-344 -288 0
345 -90 336 0
-345 90 0
-345 -336 0
346 345 344 0
-346 -345 0
-346 -344 0
347 343 -346 0
-347 -343 0
-347 346 0
348 -347 299 0
-348 347 0
-348 -299 0
349 347 -299 0
-349 -347 0
-349 299 0
350 348 349 0
-350 -348 0
-350 -349 0
351 347 299 0
-351 -347 0
-351 -299 0
352 310 351 0
-352 -310 0
-352 -351 0
353 -310 -351 0
-353 310 0
-353 351 0
354 353 352 0
-354 -353 0
-354 -352 0
355 310 -351 0
-355 -310 0
-355 351 0
356 -10 -19 0
-356 10 0
-356 19 0
357 10 19 0
-357 -10 0
-357 -19 0
358 356 357 0
-358 -356 0
-358 -357 0
359 10 -19 0
-359 -10 0
-359 19 0
360 359 -26 0
-360 -359 0
-360 26 0
361 -359 26 0
-361 359 0
-361 -26 0
362 361 360 0
-362 -361 0
-362 -360 0
363 -359 -26 0
-363 359 0
-363 26 0
364 -33 363 0
-364 33 0
-364 -363 0
365 33 -363 0
-365 -33 0
-365 363 0
366 365 364 0
-366 -365 0
-366 -364 0
367 -33 -363 0
-367 33 0
-367 363 0
368 367 -38 0
-368 -367 0
-368 38 0
369 -367 38 0
-369 367 0
-369 -38 0
370 368 369 0
-370 -368 0
-370 -369 0
371 -367 -38 0
-371 367 0
-371 38 0
372 10 -91 0
-372 -10 0
-372 91 0
373 -10 91 0
-373 10 0
-373 -91 0
374 373 372 0
-374 -373 0
-374 -372 0
375 -358 97 0
-375 358 0
-375 -97 0
376 358 -97 0
-376 -358 0
-376 97 0
377 375 376 0
-377 -375 0
-377 -376 0
378 -10 -91 0
-378 10 0
-378 91 0
379 378 377 0
-379 -378 0
-379 -377 0
380 -378 -377 0
-380 378 0
-380 377 0
381 379 380 0
-381 -379 0
-381 -380 0
382 358 97 0
-382 -358 0
-382 -97 0
383 -10 -91 0
-383 10 0
-383 91 0
384 -383 97 0
-384 383 0
-384 -97 0
385 -10 -91 0
-385 10 0
-385 91 0
386 -385 358 0
-386 385 0
-386 -358 0
387 386 384 0
-387 -386 0
-387 -384 0
388 382 -387 0
-388 -382 0
-388 387 0
389 -362 313 0
-389 362 0
-389 -313 0
390 362 -313 0
-390 -362 0
-390 313 0
391 389 390 0
-391 -389 0
-391 -390 0
392 -388 391 0
-392 388 0
-392 -391 0
393 388 -391 0
-393 -388 0
-393 391 0
394 393 392 0
-394 -393 0
-394 -392 0
395 362 313 0
-395 -362 0
-395 -313 0
396 388 313 0
-396 -388 0
-396 -313 0
397 388 362 0
-397 -388 0
-397 -362 0
398 397 396 0
-398 -397 0
-398 -396 0
399 -398 395 0
-399 398 0
-399 -395 0
400 320 -366 0
-400 -320 0
-400 366 0
401 -320 366 0
-401 320 0
-401 -366 0
402 401 400 0
-402 -401 0
-402 -400 0
403 402 -399 0
-403 -402 0
-403 399 0
404 -402 399 0
-404 402 0
-404 -399 0
405 404 403 0
-405 -404 0
-405 -403 0
406 320 366 0
-406 -320 0
-406 -366 0
407 320 399 0
-407 -320 0
-407 -399 0
408 399 366 0
-408 -399 0
-408 -366 0
409 408 407 0
-409 -408 0
-409 -407 0
410 406 -409 0
-410 -406 0
-410 409 0
411 -370 331 0
-411 370 0
-411 -331 0
412 370 -331 0
-412 -370 0
-412 331 0
413 412 411 0
-413 -412 0
-413 -411 0
414 413 -410 0
-414 -413 0
-414 410 0
415 -413 410 0
-415 413 0
-415 -410 0
416 414 415 0
-416 -414 0
-416 -415 0
417 370 331 0
-417 -370 0
-417 -331 0
418 331 410 0
-418 -331 0
-418 -410 0
419 370 410 0
-419 -370 0
-419 -410 0
420 418 419 0
-420 -418 0
-420 -419 0
421 -420 417 0
-421 420 0
-421 -417 0
422 -371 342 0
-422 371 0
-422 -342 0
423 371 -342 0
-423 -371 0
-423 342 0
424 422 423 0
-424 -422 0
-424 -423 0
425 -421 424 0
-425 421 0
-425 -424 0
426 421 -424 0
-426 -421 0
-426 424 0
427 425 426 0
-427 -425 0
-427 -426 0
428 371 342 0
-428 -371 0
-428 -342 0
429 421 342 0
-429 -421 0
-429 -342 0
430 421 371 0
-430 -421 0
-430 -371 0
431 429 430 0
-431 -429 0
-431 -430 0
432 -431 428 0
-432 431 0
-432 -428 0
433 350 -371 0
-433 -350 0
-433 371 0
434 -350 371 0
-434 350 0
-434 -371 0
435 434 433 0
-435 -434 0
-435 -433 0
436 435 -432 0
-436 -435 0
-436 432 0
437 -435 432 0
-437 435 0
-437 -432 0
438 437 436 0
-438 -437 0
-438 -436 0
439 350 371 0
-439 -350 0
-439 -371 0
440 350 432 0
-440 -350 0
-440 -432 0
441 432 371 0
-441 -432 0
-441 -371 0
442 440 441 0
-442 -440 0
-442 -441 0
443 439 -442 0
-443 -439 0
-443 442 0
444 354 -371 0
-444 -354 0
-444 371 0
445 -354 371 0
-445 354 0
-445 -371 0
446 445 444 0
-446 -445 0
-446 -444 0
447 446 -443 0
-447 -446 0
-447 443 0
448 -446 443 0
-448 446 0
-448 -443 0
449 447 448 0
-449 -447 0
-449 -448 0
450 -39 -45 0
-450 39 0
-450 45 0
451 39 45 0
-451 -39 0
-451 -45 0
452 450 451 0
-452 -450 0
-452 -451 0
453 39 -45 0
-453 -39 0
-453 45 0
454 453 -49 0
-454 -453 0
-454 49 0
455 -453 49 0
-455 453 0
-455 -49 0
456 455 454 0
-456 -455 0
-456 -454 0
457 -453 -49 0
-457 453 0
-457 49 0
458 50 457 0
-458 -50 0
-458 -457 0
459 -50 -457 0
-459 50 0
-459 457 0
460 458 459 0
-460 -458 0
-460 -459 0
461 50 -457 0
-461 -50 0
-461 457 0
462 39 374 0
-462 -39 0
-462 -374 0
463 -39 -374 0
-463 39 0
-463 374 0
464 462 463 0
-464 -462 0
-464 -463 0
465 -452 381 0
-465 452 0
-465 -381 0
466 452 -381 0
-466 -452 0
-466 381 0
467 466 465 0
-467 -466 0
-467 -465 0
468 -39 374 0
-468 39 0
-468 -374 0
469 468 467 0
-469 -468 0
-469 -467 0
470 -468 -467 0
-470 468 0
-470 467 0
471 469 470 0
-471 -469 0
-471 -470 0
472 452 381 0
-472 -452 0
-472 -381 0
473 -39 374 0
-473 39 0
-473 -374 0
474 -473 381 0
-474 473 0
-474 -381 0
475 -39 374 0
-475 39 0
-475 -374 0
476 452 -475 0
-476 -452 0
-476 475 0
477 474 476 0
-477 -474 0
-477 -476 0
478 472 -477 0
-478 -472 0
-478 477 0
479 -456 394 0
-479 456 0
-479 -394 0
480 456 -394 0
-480 -456 0
-480 394 0
481 480 479 0
-481 -480 0
-481 -479 0
482 481 -478 0
-482 -481 0
-482 478 0
483 -481 478 0
-483 481 0
-483 -478 0
484 482 483 0
-484 -482 0
-484 -483 0
485 456 394 0
-485 -456 0
-485 -394 0
486 478 394 0
-486 -478 0
-486 -394 0
487 456 478 0
-487 -456 0
-487 -478 0
488 486 487 0
-488 -486 0
-488 -487 0
489 -488 485 0
-489 488 0
-489 -485 0
490 -460 405 0
-490 460 0
-490 -405 0
491 460 -405 0
-491 -460 0
-491 405 0
492 491 490 0
-492 -491 0
-492 -490 0
493 -489 492 0
-493 489 0
-493 -492 0
494 489 -492 0
-494 -489 0
-494 492 0
495 493 494 0
-495 -493 0
-495 -494 0
496 460 405 0
-496 -460 0
-496 -405 0
497 489 405 0
-497 -489 0
-497 -405 0
498 489 460 0
-498 -489 0
-498 -460 0
499 497 498 0
-499 -497 0
-499 -498 0
500 496 -499 0
-500 -496 0
-500 499 0
501 -461 416 0
-501 461 0
-501 -416 0
502 461 -416 0
-502 -461 0
-502 416 0
503 502 501 0
-503 -502 0
-503 -501 0
504 503 -500 0
-504 -503 0
-504 500 0
505 -503 500 0
-505 503 0
-505 -500 0
506 504 505 0
-506 -504 0
-506 -505 0
507 461 416 0
-507 -461 0
-507 -416 0
508 416 500 0
-508 -416 0
-508 -500 0
509 461 500 0
-509 -461 0
-509 -500 0
510 509 508 0
-510 -509 0
-510 -508 0
511 -510 507 0
-511 510 0
-511 -507 0
512 -461 427 0
-512 461 0
-512 -427 0
513 461 -427 0
-513 -461 0
-513 427 0
514 513 512 0
-514 -513 0
-514 -512 0
515 514 -511 0
-515 -514 0
-515 511 0
516 -514 511 0
-516 514 0
-516 -511 0
517 515 516 0
-517 -515 0
-517 -516 0
518 461 427 0
-518 -461 0
-518 -427 0
519 427 511 0
-519 -427 0
-519 -511 0
520 461 511 0
-520 -461 0
-520 -511 0
521 520 519 0
-521 -520 0
-521 -519 0
522 -521 518 0
-522 521 0
-522 -518 0
523 -461 438 0
-523 461 0
-523 -438 0
524 461 -438 0
-524 -461 0
-524 438 0
525 524 523 0
-525 -524 0
-525 -523 0
526 -522 525 0
-526 522 0
-526 -525 0
527 522 -525 0
-527 -522 0
-527 525 0
528 527 526 0
-528 -527 0
-528 -526 0
529 461 438 0
-529 -461 0
-529 -438 0
530 438 522 0
-530 -438 0
-530 -522 0
531 461 522 0
-531 -461 0
-531 -522 0
532 530 531 0
-532 -530 0
-532 -531 0
533 -532 529 0
-533 532 0
-533 -529 0
534 -461 449 0
-534 461 0
-534 -449 0
535 461 -449 0
-535 -461 0
-535 449 0
536 534 535 0
-536 -534 0
-536 -535 0
537 -533 536 0
-537 533 0
-537 -536 0
538 533 -536 0
-538 -533 0
-538 536 0
539 538 537 0
-539 -538 0
-539 -537 0
540 49 -464 0
-540 -49 0
-540 464 0
541 -49 464 0
-541 49 0
-541 -464 0
542 540 541 0
-542 -540 0
-542 -541 0
543 49 464 0
-543 -49 0
-543 -464 0
544 -50 -471 0
-544 50 0
-544 471 0
545 50 471 0
-545 -50 0
-545 -471 0
546 544 545 0
-546 -544 0
-546 -545 0
547 546 543 0
-547 -546 0
-547 -543 0
548 -546 -543 0
-548 546 0
-548 543 0
549 547 548 0
-549 -547 0
-549 -548 0
550 -50 471 0
-550 50 0
-550 -471 0
551 -50 -543 0
-551 50 0
-551 543 0
552 471 -543 0
-552 -471 0
-552 543 0
553 552 551 0
-553 -552 0
-553 -551 0
554 -553 550 0
-554 553 0
-554 -550 0
555 -10 -554 0
-555 10 0
-555 554 0
556 10 554 0
-556 -10 0
-556 -554 0
557 555 556 0
-557 -555 0
-557 -556 0
558 484 -557 0
-558 -484 0
-558 557 0
559 -484 557 0
-559 484 0
-559 -557 0
560 558 559 0
-560 -558 0
-560 -559 0
561 -10 484 0
-561 10 0
-561 -484 0
562 484 554 0
-562 -484 0
-562 -554 0
563 -10 554 0
-563 10 0
-563 -554 0
564 563 562 0
-564 -563 0
-564 -562 0
565 561 -564 0
-565 -561 0
-565 564 0
566 19 -565 0
-566 -19 0
-566 565 0
567 -19 565 0
-567 19 0
-567 -565 0
568 567 566 0
-568 -567 0
-568 -566 0
569 495 -568 0
-569 -495 0
-569 568 0
570 -495 568 0
-570 495 0
-570 -568 0
571 569 570 0
-571 -569 0
-571 -570 0
572 19 495 0
-572 -19 0
-572 -495 0
573 495 565 0
-573 -495 0
-573 -565 0
574 19 565 0
-574 -19 0
-574 -565 0
575 573 574 0
-575 -573 0
-575 -574 0
576 572 -575 0
-576 -572 0
-576 575 0
577 26 -576 0
-577 -26 0
-577 576 0
578 -26 576 0
-578 26 0
-578 -576 0
579 578 577 0
-579 -578 0
-579 -577 0
580 -579 506 0
-580 579 0
-580 -506 0
581 579 -506 0
-581 -579 0
-581 506 0
582 581 580 0
-582 -581 0
-582 -580 0
583 26 506 0
-583 -26 0
-583 -506 0
584 576 506 0
-584 -576 0
-584 -506 0
585 26 576 0
-585 -26 0
-585 -576 0
586 585 584 0
-586 -585 0
-586 -584 0
587 -586 583 0
-587 586 0
-587 -583 0
588 33 -587 0
-588 -33 0
-588 587 0
589 -33 587 0
-589 33 0
-589 -587 0
590 589 588 0
-590 -589 0
-590 -588 0
591 517 -590 0
-591 -517 0
-591 590 0
592 -517 590 0
-592 517 0
-592 -590 0
593 591 592 0
-593 -591 0
-593 -592 0
594 517 33 0
-594 -517 0
-594 -33 0
595 517 587 0
-595 -517 0
-595 -587 0
596 33 587 0
-596 -33 0
-596 -587 0
597 595 596 0
-597 -595 0
-597 -596 0
598 594 -597 0
-598 -594 0
-598 597 0
599 38 -598 0
-599 -38 0
-599 598 0
600 -38 598 0
-600 38 0
-600 -598 0
601 600 599 0
-601 -600 0
-601 -599 0
602 528 -601 0
-602 -528 0
-602 601 0
603 -528 601 0
-603 528 0
-603 -601 0
604 603 602 0
-604 -603 0
-604 -602 0
605 528 38 0
-605 -528 0
-605 -38 0
606 528 598 0
-606 -528 0
-606 -598 0
607 38 598 0
-607 -38 0
-607 -598 0
608 606 607 0
-608 -606 0
-608 -607 0
609 -608 605 0
-609 608 0
-609 -605 0
610 -609 539 0
-610 609 0
-610 -539 0
611 609 -539 0
-611 -609 0
-611 539 0
612 611 610 0
-612 -611 0
-612 -610 0
613 609 539 0
-613 -609 0
-613 -539 0
-614 39 0
614 -39 0
-615 -45 0
615 45 0
-616 -542 0
616 542 0
-617 -549 0
617 549 0
-618 -560 0
618 560 0
-619 -571 0
619 571 0
-620 -582 0
620 582 0
-621 -593 0
621 593 0
-622 -604 0
622 604 0
-614 0
615 0
-616 0
617 0
-618 0
-619 0
-620 0
621 0
-622 0
